,ks_test,anderson,cramervonmises
log_return_vkco,0.0009277579757551817,0.001,0.0027456734645783243
log_return_tcs_il,0.11211663892846117,0.14367853510008588,0.11449116899565315
log_return_poly_il,0.11211663892846117,0.056080746070570744,0.05878066993735798
log_return_five_il,0.015691046354151434,0.02991420309497722,0.025297148296855698
