,ks_test,anderson,cramervonmises
log_return_vkco,8.158125170664042e-05,0.001,3.578355192046523e-06
log_return_tcs_il,0.0008502412584003069,0.001,1.1687399987803104e-06
log_return_poly_il,0.0023526700359748436,0.001,7.488400017852115e-06
log_return_five_il,0.00012501918859860432,0.001,3.8443494332351946e-07
