,ks_test,anderson,cramervonmises
log_return_vkco,0.650607200698117,0.25,0.4868669401543352
log_return_tcs_il,0.9447276394296992,0.25,0.5256306241546064
log_return_poly_il,0.9447276394296992,0.25,0.4652195250047737
log_return_five_il,0.3935720561243158,0.17304485973055614,0.10375675344818658
